Periods = 3;
Items = 10;

Demands = [|1, 1, 1 
           |1, 1, 1 
           |1, 1, 1 
           |1, 1, 1 
           |1, 1, 1 
           |1, 1, 1 
           |1, 1, 1 
           |1, 1, 1 
           |1, 1, 1 
           |1, 1, 1|]; 

StockingCosts = [1, 1, 1, 1, 1, 1, 1, 1, 1, 1]; 

SetupCosts = [|0, 0, 0, 0, 0, 0, 0, 0, 0, 0 
              |0, 0, 0, 0, 0, 0, 0, 0, 0, 0 
              |0, 0, 0, 0, 0, 0, 0, 0, 0, 0 
              |0, 0, 0, 0, 0, 0, 0, 0, 0, 0 
              |0, 0, 0, 0, 0, 0, 0, 0, 0, 0 
              |0, 0, 0, 0, 0, 0, 0, 0, 0, 0 
              |0, 0, 0, 0, 0, 0, 0, 0, 0, 0 
              |0, 0, 0, 0, 0, 0, 0, 0, 0, 0 
              |0, 0, 0, 0, 0, 0, 0, 0, 0, 0 
              |0, 0, 0, 0, 0, 0, 0, 0, 0, 0|];